array [1..2] of int: X_INTRODUCED_1_ = [1,-1];
var {111,321}: Vg11:: output_var;
var {211,221}: Vg12:: output_var;
var {211,221}: Vg13:: output_var;
var {111,321}: Vg14:: output_var;
var 1..3: X_INTRODUCED_4_ ::var_is_introduced :: is_defined_var;
var bool: X_INTRODUCED_6_ ::var_is_introduced :: is_defined_var;
var 21..22: X_INTRODUCED_7_ ::var_is_introduced :: is_defined_var;
var 1..2: X_INTRODUCED_8_ ::var_is_introduced ;
var {11,32}: X_INTRODUCED_9_ ::var_is_introduced :: is_defined_var;
var 1..2: X_INTRODUCED_10_ ::var_is_introduced ;
var bool: X_INTRODUCED_11_ ::var_is_introduced :: is_defined_var;
var 21..22: X_INTRODUCED_15_ ::var_is_introduced :: is_defined_var;
var 1..2: X_INTRODUCED_16_ ::var_is_introduced ;
var bool: X_INTRODUCED_18_ ::var_is_introduced :: is_defined_var;
var {1,3}: X_INTRODUCED_20_ ::var_is_introduced :: is_defined_var;
var bool: X_INTRODUCED_22_ ::var_is_introduced :: is_defined_var;
var {11,32}: X_INTRODUCED_23_ ::var_is_introduced :: is_defined_var;
var 1..2: X_INTRODUCED_24_ ::var_is_introduced ;
var bool: X_INTRODUCED_25_ ::var_is_introduced :: is_defined_var;
var bool: X_INTRODUCED_28_ ::var_is_introduced :: is_defined_var;
var bool: X_INTRODUCED_29_ ::var_is_introduced :: is_defined_var;
var bool: X_INTRODUCED_32_ ::var_is_introduced :: is_defined_var;
var bool: X_INTRODUCED_33_ ::var_is_introduced :: is_defined_var;
var bool: X_INTRODUCED_37_ ::var_is_introduced :: is_defined_var;
var bool: X_INTRODUCED_39_ ::var_is_introduced :: is_defined_var;
var bool: X_INTRODUCED_40_ ::var_is_introduced :: is_defined_var;
var bool: X_INTRODUCED_42_ ::var_is_introduced :: is_defined_var;
var bool: X_INTRODUCED_43_ ::var_is_introduced :: is_defined_var;
var bool: X_INTRODUCED_44_ ::var_is_introduced :: is_defined_var;
var bool: X_INTRODUCED_47_ ::var_is_introduced :: is_defined_var;
constraint int_lin_ne(X_INTRODUCED_1_,[Vg11,Vg12],0);
constraint int_lin_ne(X_INTRODUCED_1_,[Vg11,Vg13],0);
constraint int_lin_ne(X_INTRODUCED_1_,[Vg11,Vg14],0);
constraint int_lin_ne(X_INTRODUCED_1_,[Vg12,Vg13],0);
constraint int_lin_ne(X_INTRODUCED_1_,[Vg12,Vg14],0);
constraint int_lin_ne(X_INTRODUCED_1_,[Vg13,Vg14],0);
constraint int_div(Vg12,100,2);
constraint int_div(Vg11,100,X_INTRODUCED_4_):: defines_var(X_INTRODUCED_4_);
constraint int_div(Vg12,10,X_INTRODUCED_7_):: defines_var(X_INTRODUCED_7_);
constraint int_mod(X_INTRODUCED_7_,10,X_INTRODUCED_8_);
constraint int_div(Vg11,10,X_INTRODUCED_9_):: defines_var(X_INTRODUCED_9_);
constraint int_mod(X_INTRODUCED_9_,10,X_INTRODUCED_10_);
constraint int_mod(Vg12,10,1);
constraint int_mod(Vg11,10,1);
constraint int_div(Vg13,100,2);
constraint int_div(Vg13,10,X_INTRODUCED_15_):: defines_var(X_INTRODUCED_15_);
constraint int_mod(X_INTRODUCED_15_,10,X_INTRODUCED_16_);
constraint int_mod(Vg13,10,1);
constraint int_div(Vg14,100,X_INTRODUCED_20_):: defines_var(X_INTRODUCED_20_);
constraint int_div(Vg14,10,X_INTRODUCED_23_):: defines_var(X_INTRODUCED_23_);
constraint int_mod(X_INTRODUCED_23_,10,X_INTRODUCED_24_);
constraint int_mod(Vg14,10,1);
constraint array_bool_and([X_INTRODUCED_25_,X_INTRODUCED_22_,X_INTRODUCED_18_,X_INTRODUCED_11_,X_INTRODUCED_6_],false);
constraint int_lin_eq_reif(X_INTRODUCED_1_,[X_INTRODUCED_24_,X_INTRODUCED_10_],2,false);
constraint array_bool_and([X_INTRODUCED_42_,X_INTRODUCED_39_,X_INTRODUCED_37_,X_INTRODUCED_32_,X_INTRODUCED_11_],false);
constraint array_bool_and([X_INTRODUCED_47_,X_INTRODUCED_33_,X_INTRODUCED_29_,X_INTRODUCED_28_,X_INTRODUCED_18_,X_INTRODUCED_6_],false);
constraint array_bool_and([X_INTRODUCED_47_,X_INTRODUCED_44_,X_INTRODUCED_37_,X_INTRODUCED_29_,X_INTRODUCED_28_,X_INTRODUCED_18_],false);
constraint array_bool_or([X_INTRODUCED_43_,X_INTRODUCED_40_],true);
constraint int_eq_reif(X_INTRODUCED_4_,1,X_INTRODUCED_6_):: defines_var(X_INTRODUCED_6_);
constraint int_eq_reif(X_INTRODUCED_8_,X_INTRODUCED_10_,X_INTRODUCED_11_):: defines_var(X_INTRODUCED_11_);
constraint int_lin_eq_reif(X_INTRODUCED_1_,[X_INTRODUCED_16_,X_INTRODUCED_10_],-1,X_INTRODUCED_18_):: defines_var(X_INTRODUCED_18_);
constraint int_lin_eq_reif(X_INTRODUCED_1_,[X_INTRODUCED_20_,X_INTRODUCED_4_],2,X_INTRODUCED_22_):: defines_var(X_INTRODUCED_22_);
constraint int_lin_eq_reif(X_INTRODUCED_1_,[X_INTRODUCED_24_,X_INTRODUCED_10_],-1,X_INTRODUCED_25_):: defines_var(X_INTRODUCED_25_);
constraint int_eq_reif(X_INTRODUCED_4_,2,X_INTRODUCED_28_):: defines_var(X_INTRODUCED_28_);
constraint int_lin_eq_reif(X_INTRODUCED_1_,[X_INTRODUCED_8_,X_INTRODUCED_10_],-1,X_INTRODUCED_29_):: defines_var(X_INTRODUCED_29_);
constraint int_lin_eq_reif(X_INTRODUCED_1_,[X_INTRODUCED_16_,X_INTRODUCED_10_],1,X_INTRODUCED_32_):: defines_var(X_INTRODUCED_32_);
constraint int_lin_eq_reif(X_INTRODUCED_1_,[X_INTRODUCED_20_,X_INTRODUCED_4_],1,X_INTRODUCED_33_):: defines_var(X_INTRODUCED_33_);
constraint int_eq_reif(X_INTRODUCED_4_,3,X_INTRODUCED_37_):: defines_var(X_INTRODUCED_37_);
constraint int_lin_eq_reif(X_INTRODUCED_1_,[X_INTRODUCED_24_,X_INTRODUCED_10_],1,X_INTRODUCED_39_):: defines_var(X_INTRODUCED_39_);
constraint array_bool_and([X_INTRODUCED_39_,X_INTRODUCED_32_,X_INTRODUCED_22_,X_INTRODUCED_11_,X_INTRODUCED_6_],X_INTRODUCED_40_):: defines_var(X_INTRODUCED_40_);
constraint int_lin_eq_reif(X_INTRODUCED_1_,[X_INTRODUCED_20_,X_INTRODUCED_4_],-2,X_INTRODUCED_42_):: defines_var(X_INTRODUCED_42_);
constraint array_bool_and([X_INTRODUCED_42_,X_INTRODUCED_37_,X_INTRODUCED_25_,X_INTRODUCED_18_,X_INTRODUCED_11_],X_INTRODUCED_43_):: defines_var(X_INTRODUCED_43_);
constraint int_lin_eq_reif(X_INTRODUCED_1_,[X_INTRODUCED_20_,X_INTRODUCED_4_],-1,X_INTRODUCED_44_):: defines_var(X_INTRODUCED_44_);
constraint int_lin_eq_reif(X_INTRODUCED_1_,[X_INTRODUCED_24_,X_INTRODUCED_10_],-2,X_INTRODUCED_47_):: defines_var(X_INTRODUCED_47_);
solve  satisfy;
